c User generated cnf file
p cnf 10 43
1 8 -9 0 
-7 10 8 0 
5 -2 4 0 
-6 9 1 0 
-8 6 7 0 
9 8 -1 0 
-5 3 7 0 
-3 1 10 0 
2 -6 6 0 
1 3 -2 0 
-4 5 7 0 
-8 3 10 0 
9 -3 7 0 
1 10 -4 0 
-6 4 7 0 
9 -8 2 0 
5 -7 5 0 
9 -6 2 0 
-1 10 8 0 
-2 10 1 0 
8 -4 10 0 
1 2 -9 0 
9 -9 9 0 
8 6 -4 0 
2 2 -7 0 
5 3 -5 0 
-7 4 4 0 
-9 6 9 0 
2 -4 5 0 
6 10 -10 0 
1 -9 2 0 
5 9 -7 0 
-5 8 10 0 
7 -7 2 0 
7 -4 2 0 
2 7 -8 0 
9 -6 2 0 
1 -3 7 0 
9 10 -5 0 
3 6 -4 0 
7 10 -9 0 
5 2 -8 0 
10 -7 7 0 
